# INCAR for scf
ISMEAR = 0
EDIFF = 1E-6
EDIFFG = -0.001
SIGMA = 0.05
IBRION = -1
NSW = 0
ISIF = 2
ENCUT = 748.55
PSTRESS = 0.0
PREC = Accurate
KSPACING = 0.157
NPAR = 2
KPAR = 2
NELM = 120
