# INCAR for dos
EDIFF = 1E-7
EDIFFG = -0.001
ISTART = 1
ICHARG = 11
ISMEAR = -5
SIGMA = 0.05
IBRION = -1
PREC = Accurate
ENCUT = 748.55
ISIF = 2
LORBIT = 11

KSPACING = 0.157
NEDOS  =  2001
LWAVE  = .FALSE.
LCHARG = .FALSE.
NPAR = 2
KPAR = 2
# HSE part
LHFCALC= .TRUE.
HFSCREEN = 0.2
ALGO = A
TIME = 0.4
AEXX = 0.25
