SYSTEM = AIMD
LWAVE = .FALSE.
LCHARG = .FALSE.
ISTART = 0
ICHARG = 2
ISYM = 0
PREC = Normal
ALGO = N
ENCUT = 748.55
ISMEAR = 0
SIGMA = 0.05
EDIFF = 1e-5
NELMIN = 8
MDALGO = 2
ISIF = 2
IBRION = 0
#LREAL = A

NSW = 10000
POTIM = 1
SMASS = 2
NELM = 150
PSTRESS = 0
TEBEG = 300
TEEND = 300

NBLOCK = 5
KBLOCK = 4
NPAR = 8
