# COHP step2
EDIFF = 1E-6
EDIFFG = -0.01
SIGMA = 0.05
IBRION = -1
NSW = 0
ISIF = 2
ENCUT = 748.55
KSPACING = 0.157
PREC = Accurate
ISMEAR = -5
NEDOS = 2001
ISYM = -1
LCHARG = .F.
NELM = 120