Automatic generation 
0 
Gamma 
9 9 7
0 0 0

