generated by phonopy                    
   1.00000000000000     
     6.3525839278180296    0.0000000000000000    0.0000000000000000
    -3.1762919639090148    5.5014990611631021    0.0000000000000000
     0.0000000000000000   -0.0000000000000000    8.1757955585297957
   Li   In
    14     2
Direct
 -0.0000000000000000 -0.0000000000000000  0.2500000000000000
 -0.0000000000000000 -0.0000000000000000  0.7500000000000000
  0.1968082171827315  0.8031917828172686  0.4194899416678417
  0.1968082171827315  0.3936164343654843  0.4194899416678417
  0.6063835656345086  0.8031917828172686  0.4194899416678417
  0.8031917828172686  0.1968082171827315  0.9194899416678488
  0.3936164343654843  0.1968082171827315  0.9194899416678488
  0.8031917828172686  0.6063835656345086  0.9194899416678488
  0.1968082171827315  0.8031917828172686  0.0805100583321583
  0.1968082171827315  0.3936164343654843  0.0805100583321583
  0.6063835656345086  0.8031917828172686  0.0805100583321583
  0.8031917828172686  0.1968082171827315  0.5805100583321512
  0.3936164343654843  0.1968082171827315  0.5805100583321512
  0.8031917828172686  0.6063835656345086  0.5805100583321512
  0.3333333333333357  0.6666666666666643  0.7500000000000000
  0.6666666666666643  0.3333333333333357  0.2500000000000000
 
  0.00000000E+00  0.00000000E+00  0.00000000E+00
  0.00000000E+00  0.00000000E+00  0.00000000E+00
  0.00000000E+00  0.00000000E+00  0.00000000E+00
  0.00000000E+00  0.00000000E+00  0.00000000E+00
  0.00000000E+00  0.00000000E+00  0.00000000E+00
  0.00000000E+00  0.00000000E+00  0.00000000E+00
  0.00000000E+00  0.00000000E+00  0.00000000E+00
  0.00000000E+00  0.00000000E+00  0.00000000E+00
  0.00000000E+00  0.00000000E+00  0.00000000E+00
  0.00000000E+00  0.00000000E+00  0.00000000E+00
  0.00000000E+00  0.00000000E+00  0.00000000E+00
  0.00000000E+00  0.00000000E+00  0.00000000E+00
  0.00000000E+00  0.00000000E+00  0.00000000E+00
  0.00000000E+00  0.00000000E+00  0.00000000E+00
  0.00000000E+00  0.00000000E+00  0.00000000E+00
  0.00000000E+00  0.00000000E+00  0.00000000E+00
