generated by phonopy
   1.0
     5.6567984450885413    0.0000000039652210   -0.0000000031896604
     2.8283984309725287    4.8989321160618458   -0.0000000016409000
     2.8283995590183779    1.6329773833547023    4.6187578863768302
Li H
   8    8
Direct
  0.0017677843920146  0.0000000000000000  0.0000000000000000
  0.4999999999999999  0.0000000000000000  0.0000000000000000
  0.0000000000000000  0.4999999999999999  0.0000000000000000
  0.5000000000000000  0.4999999999999999  0.0000000000000000
  0.0000000000000000  0.0000000000000000  0.5000000000000000
  0.4999999999999999  0.0000000000000000  0.5000000000000000
  0.0000000000000000  0.4999999999999999  0.5000000000000000
  0.5000000000000001  0.4999999999999999  0.4999999999999999
  0.2500000000000001  0.2500000000000000  0.2500000000000000
  0.7500000000000001  0.2499999999999999  0.2500000000000000
  0.2500000000000002  0.7499999999999998  0.2500000000000000
  0.7500000000000001  0.7499999999999998  0.2500000000000000
  0.2500000000000001  0.2499999999999999  0.7500000000000000
  0.7500000000000000  0.2499999999999999  0.7500000000000000
  0.2500000000000002  0.7499999999999999  0.7500000000000000
  0.7500000000000000  0.7499999999999998  0.7500000000000000
