Li  H                                   
   1.00000000000000     
     2.8283992225442707    0.0000000019826105   -0.0000000015948302
     1.4141992154862644    2.4494660580309229   -0.0000000008204500
     1.4141997795091890    0.8164886916773512    2.3093789431884151
   Li   H 
     1     1
Direct
  0.0000000000000000  0.0000000000000000  0.0000000000000000
  0.5000000000000000  0.5000000000000000  0.5000000000000000
 
  0.00000000E+00  0.00000000E+00  0.00000000E+00
  0.00000000E+00  0.00000000E+00  0.00000000E+00
