generated by phonopy                    
   1.00000000000000     
     4.4567097903313213    0.0000000000000000    0.0000000000000000
    -2.2283548951656607    3.8596238957199662    0.0000000000000000
     0.0000000000000000    0.0000000000000000    6.4083532235540392
   Li   In
    14     2
Direct
  0.0000000000000000  0.0000000000000000  0.2500000000000000
  0.0000000000000000  0.0000000000000000  0.7500000000000000
  0.1909980415855088  0.8090019584144912  0.4111126819433721
  0.1909980415855088  0.3819960831710318  0.4111126819433721
  0.6180039168289611  0.8090019584144912  0.4111126819433721
  0.8090019584144912  0.1909980415855088  0.9111126819433792
  0.3819960831710318  0.1909980415855088  0.9111126819433792
  0.8090019584144912  0.6180039168289611  0.9111126819433792
  0.1909980415855088  0.8090019584144912  0.0888873180566279
  0.1909980415855088  0.3819960831710318  0.0888873180566279
  0.6180039168289611  0.8090019584144912  0.0888873180566279
  0.8090019584144912  0.1909980415855088  0.5888873180566208
  0.3819960831710318  0.1909980415855088  0.5888873180566208
  0.8090019584144912  0.6180039168289611  0.5888873180566208
  0.3333333333333357  0.6666666666666643  0.7500000000000000
  0.6666666666666643  0.3333333333333357  0.2500000000000000
 
