generated by phonopy
   1.0
    11.9998835265969888    0.0000000000000000    0.0000000000000000
     0.0000000000000000   11.9998835265969888    0.0000000000000000
     0.0000000000000000    0.0000000000000000   11.9998835265969888
Li H
 108  108
Direct
  0.0008333414218426  0.0000000000000000  0.0000000000000000
  0.3333333333333333  0.0000000000000000  0.0000000000000000
  0.6666666666666666  0.0000000000000000  0.0000000000000000
  0.0000000000000000  0.3333333333333333  0.0000000000000000
  0.3333333333333333  0.3333333333333333  0.0000000000000000
  0.6666666666666666  0.3333333333333333  0.0000000000000000
  0.0000000000000000  0.6666666666666666  0.0000000000000000
  0.3333333333333333  0.6666666666666666  0.0000000000000000
  0.6666666666666666  0.6666666666666666  0.0000000000000000
  0.0000000000000000  0.0000000000000000  0.3333333333333333
  0.3333333333333333  0.0000000000000000  0.3333333333333333
  0.6666666666666666  0.0000000000000000  0.3333333333333333
  0.0000000000000000  0.3333333333333333  0.3333333333333333
  0.3333333333333333  0.3333333333333333  0.3333333333333333
  0.6666666666666666  0.3333333333333333  0.3333333333333333
  0.0000000000000000  0.6666666666666666  0.3333333333333333
  0.3333333333333333  0.6666666666666666  0.3333333333333333
  0.6666666666666666  0.6666666666666666  0.3333333333333333
  0.0000000000000000  0.0000000000000000  0.6666666666666666
  0.3333333333333333  0.0000000000000000  0.6666666666666666
  0.6666666666666666  0.0000000000000000  0.6666666666666666
  0.0000000000000000  0.3333333333333333  0.6666666666666666
  0.3333333333333333  0.3333333333333333  0.6666666666666666
  0.6666666666666666  0.3333333333333333  0.6666666666666666
  0.0000000000000000  0.6666666666666666  0.6666666666666666
  0.3333333333333333  0.6666666666666666  0.6666666666666666
  0.6666666666666666  0.6666666666666666  0.6666666666666666
  0.0000000000000000  0.1666666666666667  0.1666666666666667
  0.3333333333333333  0.1666666666666667  0.1666666666666667
  0.6666666666666666  0.1666666666666667  0.1666666666666667
  0.0000000000000000  0.5000000000000000  0.1666666666666667
  0.3333333333333333  0.5000000000000000  0.1666666666666667
  0.6666666666666666  0.5000000000000000  0.1666666666666667
  0.0000000000000000  0.8333333333333334  0.1666666666666667
  0.3333333333333333  0.8333333333333334  0.1666666666666667
  0.6666666666666666  0.8333333333333334  0.1666666666666667
  0.0000000000000000  0.1666666666666667  0.5000000000000000
  0.3333333333333333  0.1666666666666667  0.5000000000000000
  0.6666666666666666  0.1666666666666667  0.5000000000000000
  0.0000000000000000  0.5000000000000000  0.5000000000000000
  0.3333333333333333  0.5000000000000000  0.5000000000000000
  0.6666666666666666  0.5000000000000000  0.5000000000000000
  0.0000000000000000  0.8333333333333334  0.5000000000000000
  0.3333333333333333  0.8333333333333334  0.5000000000000000
  0.6666666666666666  0.8333333333333334  0.5000000000000000
  0.0000000000000000  0.1666666666666667  0.8333333333333334
  0.3333333333333333  0.1666666666666667  0.8333333333333334
  0.6666666666666666  0.1666666666666667  0.8333333333333334
  0.0000000000000000  0.5000000000000000  0.8333333333333334
  0.3333333333333333  0.5000000000000000  0.8333333333333334
  0.6666666666666666  0.5000000000000000  0.8333333333333334
  0.0000000000000000  0.8333333333333334  0.8333333333333334
  0.3333333333333333  0.8333333333333334  0.8333333333333334
  0.6666666666666666  0.8333333333333334  0.8333333333333334
  0.1666666666666667  0.0000000000000000  0.1666666666666667
  0.5000000000000000  0.0000000000000000  0.1666666666666667
  0.8333333333333334  0.0000000000000000  0.1666666666666667
  0.1666666666666667  0.3333333333333333  0.1666666666666667
  0.5000000000000000  0.3333333333333333  0.1666666666666667
  0.8333333333333334  0.3333333333333333  0.1666666666666667
  0.1666666666666667  0.6666666666666666  0.1666666666666667
  0.5000000000000000  0.6666666666666666  0.1666666666666667
  0.8333333333333334  0.6666666666666666  0.1666666666666667
  0.1666666666666667  0.0000000000000000  0.5000000000000000
  0.5000000000000000  0.0000000000000000  0.5000000000000000
  0.8333333333333334  0.0000000000000000  0.5000000000000000
  0.1666666666666667  0.3333333333333333  0.5000000000000000
  0.5000000000000000  0.3333333333333333  0.5000000000000000
  0.8333333333333334  0.3333333333333333  0.5000000000000000
  0.1666666666666667  0.6666666666666666  0.5000000000000000
  0.5000000000000000  0.6666666666666666  0.5000000000000000
  0.8333333333333334  0.6666666666666666  0.5000000000000000
  0.1666666666666667  0.0000000000000000  0.8333333333333334
  0.5000000000000000  0.0000000000000000  0.8333333333333334
  0.8333333333333334  0.0000000000000000  0.8333333333333334
  0.1666666666666667  0.3333333333333333  0.8333333333333334
  0.5000000000000000  0.3333333333333333  0.8333333333333334
  0.8333333333333334  0.3333333333333333  0.8333333333333334
  0.1666666666666667  0.6666666666666666  0.8333333333333334
  0.5000000000000000  0.6666666666666666  0.8333333333333334
  0.8333333333333334  0.6666666666666666  0.8333333333333334
  0.1666666666666667  0.1666666666666667  0.0000000000000000
  0.5000000000000000  0.1666666666666667  0.0000000000000000
  0.8333333333333334  0.1666666666666667  0.0000000000000000
  0.1666666666666667  0.5000000000000000  0.0000000000000000
  0.5000000000000000  0.5000000000000000  0.0000000000000000
  0.8333333333333334  0.5000000000000000  0.0000000000000000
  0.1666666666666667  0.8333333333333334  0.0000000000000000
  0.5000000000000000  0.8333333333333334  0.0000000000000000
  0.8333333333333334  0.8333333333333334  0.0000000000000000
  0.1666666666666667  0.1666666666666667  0.3333333333333333
  0.5000000000000000  0.1666666666666667  0.3333333333333333
  0.8333333333333334  0.1666666666666667  0.3333333333333333
  0.1666666666666667  0.5000000000000000  0.3333333333333333
  0.5000000000000000  0.5000000000000000  0.3333333333333333
  0.8333333333333334  0.5000000000000000  0.3333333333333333
  0.1666666666666667  0.8333333333333334  0.3333333333333333
  0.5000000000000000  0.8333333333333334  0.3333333333333333
  0.8333333333333334  0.8333333333333334  0.3333333333333333
  0.1666666666666667  0.1666666666666667  0.6666666666666666
  0.5000000000000000  0.1666666666666667  0.6666666666666666
  0.8333333333333334  0.1666666666666667  0.6666666666666666
  0.1666666666666667  0.5000000000000000  0.6666666666666666
  0.5000000000000000  0.5000000000000000  0.6666666666666666
  0.8333333333333334  0.5000000000000000  0.6666666666666666
  0.1666666666666667  0.8333333333333334  0.6666666666666666
  0.5000000000000000  0.8333333333333334  0.6666666666666666
  0.8333333333333334  0.8333333333333334  0.6666666666666666
  0.0000000000000000  0.1666666666666667  0.0000000000000000
  0.3333333333333333  0.1666666666666667  0.0000000000000000
  0.6666666666666666  0.1666666666666667  0.0000000000000000
  0.0000000000000000  0.5000000000000000  0.0000000000000000
  0.3333333333333333  0.5000000000000000  0.0000000000000000
  0.6666666666666666  0.5000000000000000  0.0000000000000000
  0.0000000000000000  0.8333333333333334  0.0000000000000000
  0.3333333333333333  0.8333333333333334  0.0000000000000000
  0.6666666666666666  0.8333333333333334  0.0000000000000000
  0.0000000000000000  0.1666666666666667  0.3333333333333333
  0.3333333333333333  0.1666666666666667  0.3333333333333333
  0.6666666666666666  0.1666666666666667  0.3333333333333333
  0.0000000000000000  0.5000000000000000  0.3333333333333333
  0.3333333333333333  0.5000000000000000  0.3333333333333333
  0.6666666666666666  0.5000000000000000  0.3333333333333333
  0.0000000000000000  0.8333333333333334  0.3333333333333333
  0.3333333333333333  0.8333333333333334  0.3333333333333333
  0.6666666666666666  0.8333333333333334  0.3333333333333333
  0.0000000000000000  0.1666666666666667  0.6666666666666666
  0.3333333333333333  0.1666666666666667  0.6666666666666666
  0.6666666666666666  0.1666666666666667  0.6666666666666666
  0.0000000000000000  0.5000000000000000  0.6666666666666666
  0.3333333333333333  0.5000000000000000  0.6666666666666666
  0.6666666666666666  0.5000000000000000  0.6666666666666666
  0.0000000000000000  0.8333333333333334  0.6666666666666666
  0.3333333333333333  0.8333333333333334  0.6666666666666666
  0.6666666666666666  0.8333333333333334  0.6666666666666666
  0.0000000000000000  0.0000000000000000  0.1666666666666667
  0.3333333333333333  0.0000000000000000  0.1666666666666667
  0.6666666666666666  0.0000000000000000  0.1666666666666667
  0.0000000000000000  0.3333333333333333  0.1666666666666667
  0.3333333333333333  0.3333333333333333  0.1666666666666667
  0.6666666666666666  0.3333333333333333  0.1666666666666667
  0.0000000000000000  0.6666666666666666  0.1666666666666667
  0.3333333333333333  0.6666666666666666  0.1666666666666667
  0.6666666666666666  0.6666666666666666  0.1666666666666667
  0.0000000000000000  0.0000000000000000  0.5000000000000000
  0.3333333333333333  0.0000000000000000  0.5000000000000000
  0.6666666666666666  0.0000000000000000  0.5000000000000000
  0.0000000000000000  0.3333333333333333  0.5000000000000000
  0.3333333333333333  0.3333333333333333  0.5000000000000000
  0.6666666666666666  0.3333333333333333  0.5000000000000000
  0.0000000000000000  0.6666666666666666  0.5000000000000000
  0.3333333333333333  0.6666666666666666  0.5000000000000000
  0.6666666666666666  0.6666666666666666  0.5000000000000000
  0.0000000000000000  0.0000000000000000  0.8333333333333334
  0.3333333333333333  0.0000000000000000  0.8333333333333334
  0.6666666666666666  0.0000000000000000  0.8333333333333334
  0.0000000000000000  0.3333333333333333  0.8333333333333334
  0.3333333333333333  0.3333333333333333  0.8333333333333334
  0.6666666666666666  0.3333333333333333  0.8333333333333334
  0.0000000000000000  0.6666666666666666  0.8333333333333334
  0.3333333333333333  0.6666666666666666  0.8333333333333334
  0.6666666666666666  0.6666666666666666  0.8333333333333334
  0.1666666666666667  0.1666666666666667  0.1666666666666667
  0.5000000000000000  0.1666666666666667  0.1666666666666667
  0.8333333333333334  0.1666666666666667  0.1666666666666667
  0.1666666666666667  0.5000000000000000  0.1666666666666667
  0.5000000000000000  0.5000000000000000  0.1666666666666667
  0.8333333333333334  0.5000000000000000  0.1666666666666667
  0.1666666666666667  0.8333333333333334  0.1666666666666667
  0.5000000000000000  0.8333333333333334  0.1666666666666667
  0.8333333333333334  0.8333333333333334  0.1666666666666667
  0.1666666666666667  0.1666666666666667  0.5000000000000000
  0.5000000000000000  0.1666666666666667  0.5000000000000000
  0.8333333333333334  0.1666666666666667  0.5000000000000000
  0.1666666666666667  0.5000000000000000  0.5000000000000000
  0.5000000000000000  0.5000000000000000  0.5000000000000000
  0.8333333333333334  0.5000000000000000  0.5000000000000000
  0.1666666666666667  0.8333333333333334  0.5000000000000000
  0.5000000000000000  0.8333333333333334  0.5000000000000000
  0.8333333333333334  0.8333333333333334  0.5000000000000000
  0.1666666666666667  0.1666666666666667  0.8333333333333334
  0.5000000000000000  0.1666666666666667  0.8333333333333334
  0.8333333333333334  0.1666666666666667  0.8333333333333334
  0.1666666666666667  0.5000000000000000  0.8333333333333334
  0.5000000000000000  0.5000000000000000  0.8333333333333334
  0.8333333333333334  0.5000000000000000  0.8333333333333334
  0.1666666666666667  0.8333333333333334  0.8333333333333334
  0.5000000000000000  0.8333333333333334  0.8333333333333334
  0.8333333333333334  0.8333333333333334  0.8333333333333334
  0.1666666666666667  0.0000000000000000  0.0000000000000000
  0.5000000000000000  0.0000000000000000  0.0000000000000000
  0.8333333333333334  0.0000000000000000  0.0000000000000000
  0.1666666666666667  0.3333333333333333  0.0000000000000000
  0.5000000000000000  0.3333333333333333  0.0000000000000000
  0.8333333333333334  0.3333333333333333  0.0000000000000000
  0.1666666666666667  0.6666666666666666  0.0000000000000000
  0.5000000000000000  0.6666666666666666  0.0000000000000000
  0.8333333333333334  0.6666666666666666  0.0000000000000000
  0.1666666666666667  0.0000000000000000  0.3333333333333333
  0.5000000000000000  0.0000000000000000  0.3333333333333333
  0.8333333333333334  0.0000000000000000  0.3333333333333333
  0.1666666666666667  0.3333333333333333  0.3333333333333333
  0.5000000000000000  0.3333333333333333  0.3333333333333333
  0.8333333333333334  0.3333333333333333  0.3333333333333333
  0.1666666666666667  0.6666666666666666  0.3333333333333333
  0.5000000000000000  0.6666666666666666  0.3333333333333333
  0.8333333333333334  0.6666666666666666  0.3333333333333333
  0.1666666666666667  0.0000000000000000  0.6666666666666666
  0.5000000000000000  0.0000000000000000  0.6666666666666666
  0.8333333333333334  0.0000000000000000  0.6666666666666666
  0.1666666666666667  0.3333333333333333  0.6666666666666666
  0.5000000000000000  0.3333333333333333  0.6666666666666666
  0.8333333333333334  0.3333333333333333  0.6666666666666666
  0.1666666666666667  0.6666666666666666  0.6666666666666666
  0.5000000000000000  0.6666666666666666  0.6666666666666666
  0.8333333333333334  0.6666666666666666  0.6666666666666666
