# INCAR for ph
ISTART = 0        
#LREAL = Auto    
ENCUT = 748.55   
PREC = Accurate     
LWAVE = .FALSE.  
LCHARG = .FALSE.    
ADDGRID = .TRUE. 
ISMEAR = 0          
SIGMA = 0.06   
NELM = 150         
EDIFF = 1E-07
EDIFFG = -1E-03
ALGO = N
NPAR = 4
SYMPREC = 1E-12