# INCAR for relax
PREC = Accurate
EDIFF = 1e-6
EDIFFG = -1e-3
ENCUT = 358.82
PSTRESS = 0.0
KSPACING = 0.157
SIGMA = 0.030
POTIM = 0.020
IBRION = 2
ISIF = 3
NSW = 150
ISMEAR = 0
LWAVE = F
LCHARG = F
NPAR = 2
KPAR = 2
