asdfIn2
1.0
   3.2594705400000001    0.0000000000000000    0.0000000000000002
   0.0000000000000005    3.2594705400000001    0.0000000000000002
   0.0000000000000000    0.0000000000000000    4.9857987000000001
C
2
direct
   0.0000000000000000    0.0000000000000000    0.0000000000000000 In
   0.5000000000000000    0.5000000000000000    0.5000000000000000 In
