&CONTROL
    calculation = 'vc-relax' , prefix = 'pwscf'
    pseudo_dir = '/fsa/home/js_zhuyj/mypps/QE/SSSP_1.3.0_PBE_efficiency'
    outdir = './tmp'
    forc_conv_thr = 1.0d-7
    etot_conv_thr = 1.0d-7
/
&SYSTEM
    ibrav= 0, nat= 2, ntyp= 1,  
    occupations = 'smearing', smearing = 'mp', degauss = 0.02
    ecutwfc = 100
/
&ELECTRONS
    electron_maxstep = 100
    conv_thr = 1.0d-11
!    diagonalization = 'cg'
/
&IONS
    ion_dynamics='bfgs'
/
&CELL
    press = 0.0  !kbar
    press_conv_thr = 0.02
    cell_dynamics = 'bfgs'
/
ATOMIC_SPECIES
In 114.818 In.pbe-dn-rrkjus_psl.0.2.2.UPF

K_POINTS automatic
13 13 9 0 0 0

CELL_PARAMETERS angstrom
3.25947054000000 0.00000000000000 0.00000000000000
0.00000000000000 3.25947054000000 0.00000000000000
0.00000000000000 0.00000000000000 4.98579870000000

ATOMIC_POSITIONS angstrom
In 0.0000000000 0.0000000000 0.0000000000 
In 1.6297352700 1.6297352700 2.4928993500 


