# INCAR for elf
ISMEAR = 0
EDIFF = 1E-7
EDIFFG = -0.001
SIGMA = 0.05
IBRION = -1
NSW = 0
ISIF = 2
ENCUT = 600.0
PREC = Accurate
KSPACING = 0.157
NPAR = 2
#KPAR = 2
NELM = 120
LELF = .True.
LCHARG = .False.
LWAVE = .False.

# GGA+U part
LASPH = .T.
LDAU = .T.
LDAUTYPE = 2
LDAUL = -1 -1 -1  # 2 for +U, -1 for not +U
LDAUU = 0 0 0  # Ueff = U-J
LDAUJ = 0 0 0 
LMAXMIX = 4 # If f electron, use 6
