Automatic generation 
0 
Gamma 
14 14 1
0 0 0

