V N H                                   
   1.00000000000000     
     3.0172067141845957    0.0000000000000000    0.0000000000000000
    -1.5086033570922979    2.6129764682463446    0.0000000000000000
     0.0000000000000000    0.0000000000000000   20.0000000000000000
   V    N    O 
     2     2     1
Direct
  0.3333331750050021  0.6666668161892062  0.5666858859289050
  0.6666668173699648  0.3333331703399764  0.4093223626019764
  0.0000000000000000  0.0000000000000000  0.5971373341246817
  0.0000000000000000  0.0000000000000000  0.3734529068176684
  0.3333331750050021  0.6666668161892062  0.4763724555997229
 
  0.00000000E+00  0.00000000E+00  0.00000000E+00
  0.00000000E+00  0.00000000E+00  0.00000000E+00
  0.00000000E+00  0.00000000E+00  0.00000000E+00
  0.00000000E+00  0.00000000E+00  0.00000000E+00
  0.00000000E+00  0.00000000E+00  0.00000000E+00
